p cnf 100 120
-45 -42 -51 0
-68 70 -58 0
88 91 59 0
57 -27 17 0
-93 1 -86 0
-42 96 -2 0
-30 51 -9 0
94 57 -38 0
42 92 11 0
-78 -37 100 0
-30 76 44 0
24 49 28 0
-75 7 -43 0
28 -88 64 0
3 77 -59 0
-29 -41 -10 0
31 -23 17 0
89 -90 -11 0
24 -68 11 0
3 90 50 0
98 61 56 0
24 57 53 0
-79 24 38 0
-58 59 -44 0
-27 82 74 0
43 60 8 0
22 -91 -13 0
4 -5 56 0
66 -43 -45 0
5 75 -84 0
62 -49 -78 0
-28 -85 50 0
33 2 -85 0
36 -87 -53 0
-4 63 80 0
29 15 -21 0
25 31 -84 0
-60 -100 -36 0
-85 -1 75 0
9 -98 -87 0
-58 43 35 0
-14 -94 -37 0
23 -59 11 0
85 30 78 0
-37 -41 35 0
-15 60 -78 0
9 -42 -10 0
-78 -95 -74 0
-57 79 -90 0
4 49 95 0
-8 68 64 0
68 41 8 0
55 -67 33 0
64 -77 -42 0
67 -35 -60 0
-80 -67 84 0
46 54 -9 0
6 95 -34 0
35 31 -88 0
43 91 -63 0
-17 -59 91 0
15 49 67 0
4 -58 -95 0
-27 -10 -59 0
-79 55 -27 0
57 -88 -22 0
-82 97 -25 0
68 -19 -5 0
81 -96 100 0
-23 86 81 0
11 -87 26 0
-82 2 29 0
64 -67 34 0
25 -3 -22 0
90 -74 79 0
79 -100 -73 0
-99 -56 8 0
93 -10 86 0
-75 -49 -26 0
-48 -19 -4 0
16 24 -56 0
-74 32 -4 0
10 62 -49 0
-21 -98 -75 0
-28 -36 96 0
72 -56 52 0
-17 100 96 0
-94 79 2 0
-95 11 57 0
5 -88 91 0
-42 16 -43 0
-59 -40 56 0
29 -48 4 0
-42 51 -4 0
62 35 97 0
35 4 -81 0
-52 72 -43 0
84 96 66 0
-100 -94 36 0
-41 14 30 0
x 1 3 4 -5 6 -13 15 16 17 -21 22 23 24 -28 -30 -31 32 -33 -36 37 -38 -40 41 43 45 46 -47 49 50 51 -54 55 -57 58 -64 -66 69 -71 72 -75 76 -77 -79 80 82 84 -85 -87 88 -92 -95 -97 99 -100 0
x -2 3 -4 5 -8 9 10 -13 -15 17 18 -19 -20 -22 -23 25 -28 -32 34 38 39 -41 -45 -50 52 53 -57 58 59 62 64 -65 -66 -67 70 72 73 75 77 78 -79 81 82 -84 -86 -87 -88 89 -90 93 -95 -98 -100 0
x -3 -4 5 7 -9 -10 -14 15 16 -19 -21 22 -24 -26 -28 -31 -32 -33 34 -36 40 -41 -44 -45 46 47 -49 53 55 57 58 -59 62 -63 -67 -68 -70 -72 73 -74 -75 -82 85 86 89 -91 92 95 -96 97 0
x 2 -3 5 7 -8 9 16 17 -18 19 -26 -28 29 30 34 37 39 -41 -42 -44 -48 -50 -53 55 -57 -60 61 62 -63 -64 65 -66 70 71 72 -76 -77 -78 -80 84 -88 89 90 -92 93 -97 -100 0
x -3 -4 5 7 9 11 -15 16 -19 -20 -23 -26 -27 -28 -31 33 36 -44 -45 -46 49 51 -53 -57 58 59 60 -61 -62 -65 -67 -70 71 -74 -76 -77 -78 81 85 87 89 91 92 -94 -95 -98 99 0
x -2 -3 4 6 -7 -12 -14 -15 16 -17 19 -22 23 26 -28 30 -31 -32 -33 -34 -36 -38 -40 43 -44 -45 46 -49 -52 -54 -56 58 -60 61 -62 -64 66 67 71 75 82 -83 -86 87 -91 97 -99 0
x 3 -4 5 -9 10 11 -13 14 15 16 19 21 24 30 -31 34 -37 -38 -44 45 49 50 -53 57 58 -60 -62 65 68 69 70 -71 -72 -73 74 -75 76 -77 -78 -80 -85 -87 -89 90 -95 -97 -98 99 0
x -1 3 -4 -6 9 10 -11 13 -14 15 -16 19 -20 22 -24 25 -26 27 -32 -33 34 -36 -37 -38 -40 -41 -43 -49 51 -52 -53 54 -55 56 57 -59 -60 -61 63 68 -70 71 -72 73 -76 77 78 79 80 84 -85 -86 -87 88 89 91 -93 -94 95 97 -98 99 0
x 3 -4 5 6 8 9 -10 13 14 -15 -16 18 21 22 -24 25 26 -27 29 31 -32 33 34 -36 38 39 -41 -42 -43 46 47 -48 -50 51 -52 -53 -54 56 57 -58 60 -62 63 67 -68 70 -72 73 74 -75 76 -78 -79 -81 83 85 -86 92 93 -95 -100 0
x -2 6 9 -13 -16 18 19 -20 24 25 -26 -27 29 -35 -37 -40 44 -47 48 -49 50 -51 55 57 -58 61 -62 64 -71 73 74 -75 -77 78 79 82 -83 -84 89 90 -91 92 -94 0
x 1 -2 -3 -4 -5 7 -9 10 12 -13 -15 -16 17 -18 -19 20 21 -22 23 24 -26 -28 30 -32 -34 -36 -37 -38 -40 42 -45 -48 -53 -55 56 -58 -60 61 62 64 -66 -68 69 -71 -76 -77 -78 81 82 84 85 -89 -91 92 96 97 99 100 0
x -1 2 3 -6 10 -14 -16 -17 18 -21 26 -28 -30 -33 -34 -35 36 -46 -47 -51 -52 53 -58 -59 63 -64 -67 68 69 -71 -72 -73 74 75 -77 -78 -80 82 -83 84 85 87 88 89 90 98 0
x -6 -9 -11 -13 -15 17 -20 23 24 25 26 27 29 -31 -32 -33 34 35 -36 37 38 -41 42 44 -45 -46 -47 48 49 52 53 -55 -56 -57 -58 59 -60 62 -65 -68 -71 72 76 -80 83 -84 87 88 -91 94 -95 -98 0
x -2 -7 -8 9 -10 -11 14 -18 -19 21 22 23 24 25 -26 -28 -31 35 38 -40 42 46 -47 -49 -50 -51 52 -55 57 -60 -62 -63 -64 -65 75 -76 79 -83 -85 -86 -88 91 -93 97 99 100 0
x 2 6 9 -10 -12 -13 14 -15 -16 17 19 21 -22 24 -25 -27 -28 -35 37 38 39 -40 -43 44 48 -49 50 -51 -53 54 57 -58 59 -60 63 65 66 68 69 70 71 79 -84 85 -86 -87 90 -91 -92 98 0
x 2 -4 -6 -8 -9 -10 11 12 -14 17 -22 24 -25 -26 -28 36 -37 39 42 44 47 51 54 56 57 61 -63 65 66 68 69 -70 71 -73 -75 -77 -78 79 80 -83 -85 88 89 91 92 93 95 -96 100 0
x -1 3 -5 -9 11 12 -17 -21 -22 24 -26 -27 -31 33 34 37 38 -39 41 -42 -43 -45 -49 -51 56 -57 59 -62 -65 -67 -71 -72 -73 78 79 80 83 -89 -91 -93 94 0
x -1 2 3 5 12 -13 14 -15 -17 20 22 23 -25 26 -27 29 31 32 -33 34 -36 -37 -38 42 -43 45 -46 -47 -48 -50 52 53 56 -57 -59 63 65 69 -72 -75 -77 78 -81 85 -86 87 -89 93 -95 -96 -97 -99 0
x -1 2 -4 5 -7 9 13 16 17 19 -20 -21 22 23 -24 25 -29 -30 -32 34 -35 -36 -37 -40 42 -44 -46 48 51 55 56 -58 59 -60 62 63 64 65 67 68 71 -72 -77 -79 80 -81 -85 -88 93 94 -95 98 -99 100 0
x 1 -2 -3 5 -6 -9 10 11 14 15 17 20 -22 23 -27 29 -30 31 -32 -34 -36 38 -45 -46 -47 54 -56 59 60 62 63 64 65 -67 68 -69 70 73 74 77 78 -79 80 -81 -83 84 85 88 90 -93 95 96 0
